c 1 DellLaptops_Notebooks
c 2 ProductCategory
c 3 MiniNotebooks
c 4 InspironLaptops
c 5 StudioLaptops
c 6 XPSLaptops
c 7 Adamo
c 8 StudioXPSLaptops
c 9 OperatingSystem
c 10 WindowsVista64bit
c 11 WindowsXPHome
c 12 UbuntuLinux
c 13 Windows7
c 14 Windows8
c 15 HardDrive
c 16 a500GB
c 17 a320GB
c 18 a250GB
c 19 a160GB
c 20 a128GBSolidState
c 21 a120GB
c 22 a80GB
c 23 OpticalDrive
c 24 CD_DVD_RW
c 25 DVD_ROMDriveandDVD__RW
c 26 DVD__RWandCD_RWCombo
c 27 BluRayDisc
c 28 LaptopWeight
c 29 UltraLight
c 30 Light
c 31 DesktopReplacement
c 32 Memory
c 33 Morethan4GB
c 34 a4GB
c 35 a3GB
c 36 a2GB
c 37 a1GB
c 38 Processor
c 39 IntelCore2Duo
c 40 IntelPentiumDualcore
c 41 IntelCeleron
c 42 IntelAtom
c 43 Price
c 44 Lessthan_400
c 45 _400__800
c 46 _800__1200
c 47 Morethan_1200
p cnf 47 244
1 0
1 -2 0
1 -9 0
1 -15 0
1 -23 0
1 -28 0
1 -32 0
1 -38 0
1 -43 0
-1 2 0
-1 9 0
-1 15 0
-1 28 0
-1 32 0
-1 38 0
-1 43 0
-3 2 0
-4 2 0
2 -5 0
2 -6 0
-7 2 0
2 -8 0
7 4 3 -2 5 8 6 0
-4 -3 0
-3 -5 0
-3 -6 0
-7 -3 0
-3 -8 0
-4 -5 0
-4 -6 0
-7 -4 0
-4 -8 0
-5 -6 0
-7 -5 0
-5 -8 0
-7 -6 0
-8 -6 0
-7 -8 0
9 -10 0
9 -11 0
9 -12 0
9 -13 0
9 -14 0
-9 12 13 14 10 11 0
-10 -11 0
-12 -10 0
-13 -10 0
-14 -10 0
-12 -11 0
-13 -11 0
-14 -11 0
-12 -13 0
-12 -14 0
-13 -14 0
15 -16 0
15 -17 0
15 -18 0
15 -19 0
15 -20 0
15 -21 0
15 -22 0
-15 21 20 19 18 17 16 22 0
-17 -16 0
-18 -16 0
-19 -16 0
-20 -16 0
-21 -16 0
-16 -22 0
-18 -17 0
-19 -17 0
-20 -17 0
-21 -17 0
-17 -22 0
-19 -18 0
-20 -18 0
-21 -18 0
-18 -22 0
-20 -19 0
-21 -19 0
-19 -22 0
-21 -20 0
-20 -22 0
-21 -22 0
-24 23 0
-25 23 0
-26 23 0
-27 23 0
27 24 25 26 -23 0
-24 -25 0
-24 -26 0
-27 -24 0
-25 -26 0
-27 -25 0
-27 -26 0
28 -29 0
28 -30 0
-31 28 0
31 -28 30 29 0
-30 -29 0
-31 -29 0
-31 -30 0
32 -33 0
32 -34 0
32 -35 0
32 -36 0
32 -37 0
-32 33 37 36 35 34 0
-33 -34 0
-33 -35 0
-33 -36 0
-33 -37 0
-35 -34 0
-36 -34 0
-37 -34 0
-36 -35 0
-37 -35 0
-37 -36 0
-39 38 0
-40 38 0
-41 38 0
-42 38 0
42 41 39 40 -38 0
-39 -40 0
-41 -39 0
-42 -39 0
-41 -40 0
-42 -40 0
-42 -41 0
-44 43 0
43 -45 0
43 -46 0
-47 43 0
44 47 -43 45 46 0
-44 -45 0
-44 -46 0
-44 -47 0
-45 -46 0
-47 -45 0
-47 -46 0
-26 -6 0
-6 -36 0
-6 -22 0
-25 -6 0
-6 -20 0
-6 -21 0
-12 -6 0
-6 -19 0
-41 -6 0
-40 -6 0
-6 -37 0
-7 -12 0
-7 -16 0
-7 -17 0
-42 -6 0
-44 -6 0
-7 -11 0
-7 -19 0
-7 -18 0
-7 -22 0
-7 -21 0
-4 -33 0
-4 -37 0
-4 -29 0
-31 -4 0
-5 -11 0
-4 -42 0
-4 -47 0
-5 -12 0
-5 -19 0
-5 -20 0
-5 -21 0
-5 -22 0
-33 -5 0
-5 -36 0
-5 -37 0
-41 -5 0
-42 -5 0
-44 -5 0
-47 -5 0
-11 -6 0
-27 -8 0
-26 -8 0
-25 -8 0
-8 -22 0
-27 -4 0
-26 -4 0
-25 -4 0
-4 -11 0
-4 -10 0
-3 -47 0
-4 -22 0
-4 -21 0
-4 -20 0
-4 -12 0
-47 -8 0
-40 -3 0
-39 -3 0
-3 -46 0
-41 -3 0
-30 -3 0
-27 -3 0
-3 -33 0
-31 -3 0
-3 -35 0
-3 -34 0
-7 -27 0
-31 -8 0
-7 -26 0
-33 -8 0
-7 -25 0
-7 -24 0
-7 -31 0
-7 -30 0
-8 -45 0
-44 -8 0
-7 -33 0
-42 -8 0
-41 -8 0
-40 -8 0
-7 -40 0
-8 -37 0
-7 -41 0
-8 -36 0
-7 -35 0
-7 -37 0
-8 -35 0
-3 -20 0
-7 -44 0
-3 -18 0
-7 -42 0
-3 -17 0
-7 -46 0
-3 -16 0
-7 -45 0
-26 -3 0
-25 -3 0
-24 -3 0
-8 -11 0
-8 -12 0
-8 -18 0
-3 -10 0
-8 -19 0
-8 -20 0
-8 -21 0
