c 1 DellLaptops_Notebooks
c 2 ProductCategory
c 3 MiniNotebooks
c 4 InspironLaptops
c 5 StudioLaptops
c 6 XPSLaptops
c 7 Adamo
c 8 StudioXPSLaptops
c 9 OperatingSystem
c 10 WindowsVista64bit
c 11 WindowsXPHome
c 12 UbuntuLinux
c 13 Windows7
c 14 Windows8
c 15 HardDrive
c 16 a500GB
c 17 a320GB
c 18 a250GB
c 19 a160GB
c 20 a128GBSolidState
c 21 a120GB
c 22 a80GB
c 23 OpticalDrive
c 24 CD_DVD_RW
c 25 DVD_ROMDriveandDVD__RW
c 26 DVD__RWandCD_RWCombo
c 27 BluRayDisc
c 28 LaptopWeight
c 29 UltraLight
c 30 Light
c 31 DesktopReplacement
c 32 Memory
c 33 Morethan4GB
c 34 a4GB
c 35 a3GB
c 36 a2GB
c 37 a1GB
c 38 Processor
c 39 IntelCore2Duo
c 40 IntelPentiumDualcore
c 41 IntelCeleron
c 42 IntelAtom
c 43 Price
c 44 Lessthan_400
c 45 _400__800
c 46 _800__1200
c 47 Morethan_1200
o -42 47 0
o 8 10 -17 0
o 32 38 20 0
o 9 28 3 -4 -10 0
o 23 28 -32 -3 7 0
o 15 32 -4 7 10 0
o 9 15 28 -4 0
o -11 13 22 0
o 9 -15 -23 -5 -6 0
o -10 17 -24 0
o -3 6 -8 0
o 15 23 28 32 -7 0
o 2 43 -5 -8 10 0
o 9 28 32 38 -7 0
o 9 15 -3 -8 10 0
o 16 -18 21 0
o 38 -5 8 -12 0
o 23 -7 -8 0
o 2 9 -23 -32 -6 0
o 15 -3 4 -7 -10 0
o 23 -4 -5 -8 -10 0
o 9 28 -20 0
o -9 -38 43 -3 -8 0
o 9 28 32 -4 5 0
o 9 -5 -22 0
p wcnf 47 244 245
1 1 -2 0
1 1 -9 0
1 1 -15 0
1 1 -23 0
1 1 -28 0
1 1 -32 0
1 1 -38 0
1 1 -43 0
1 -1 2 0
1 -1 9 0
1 -1 15 0
1 -1 28 0
1 -1 32 0
1 -1 38 0
1 -1 43 0
1 -3 2 0
1 -4 2 0
1 2 -5 0
1 2 -6 0
1 -7 2 0
1 2 -8 0
1 7 4 3 -2 5 8 6 0
1 -4 -3 0
1 -3 -5 0
1 -3 -6 0
1 -7 -3 0
1 -3 -8 0
1 -4 -5 0
1 -4 -6 0
1 -7 -4 0
1 -4 -8 0
1 -5 -6 0
1 -7 -5 0
1 -5 -8 0
1 -7 -6 0
1 -8 -6 0
1 -7 -8 0
1 9 -10 0
1 9 -11 0
1 9 -12 0
1 9 -13 0
1 9 -14 0
1 -9 12 13 14 10 11 0
1 -10 -11 0
1 -12 -10 0
1 -13 -10 0
1 -14 -10 0
1 -12 -11 0
1 -13 -11 0
1 -14 -11 0
1 -12 -13 0
1 -12 -14 0
1 -13 -14 0
1 15 -16 0
1 15 -17 0
1 15 -18 0
1 15 -19 0
1 15 -20 0
1 15 -21 0
1 15 -22 0
1 -15 21 20 19 18 17 16 22 0
1 -17 -16 0
1 -18 -16 0
1 -19 -16 0
1 -20 -16 0
1 -21 -16 0
1 -16 -22 0
1 -18 -17 0
1 -19 -17 0
1 -20 -17 0
1 -21 -17 0
1 -17 -22 0
1 -19 -18 0
1 -20 -18 0
1 -21 -18 0
1 -18 -22 0
1 -20 -19 0
1 -21 -19 0
1 -19 -22 0
1 -21 -20 0
1 -20 -22 0
1 -21 -22 0
1 -24 23 0
1 -25 23 0
1 -26 23 0
1 -27 23 0
1 27 24 25 26 -23 0
1 -24 -25 0
1 -24 -26 0
1 -27 -24 0
1 -25 -26 0
1 -27 -25 0
1 -27 -26 0
1 28 -29 0
1 28 -30 0
1 -31 28 0
1 31 -28 30 29 0
1 -30 -29 0
1 -31 -29 0
1 -31 -30 0
1 32 -33 0
1 32 -34 0
1 32 -35 0
1 32 -36 0
1 32 -37 0
1 -32 33 37 36 35 34 0
1 -33 -34 0
1 -33 -35 0
1 -33 -36 0
1 -33 -37 0
1 -35 -34 0
1 -36 -34 0
1 -37 -34 0
1 -36 -35 0
1 -37 -35 0
1 -37 -36 0
1 -39 38 0
1 -40 38 0
1 -41 38 0
1 -42 38 0
1 42 41 39 40 -38 0
1 -39 -40 0
1 -41 -39 0
1 -42 -39 0
1 -41 -40 0
1 -42 -40 0
1 -42 -41 0
1 -44 43 0
1 43 -45 0
1 43 -46 0
1 -47 43 0
1 44 47 -43 45 46 0
1 -44 -45 0
1 -44 -46 0
1 -44 -47 0
1 -45 -46 0
1 -47 -45 0
1 -47 -46 0
1 -26 -6 0
1 -6 -36 0
1 -6 -22 0
1 -25 -6 0
1 -6 -20 0
1 -6 -21 0
1 -12 -6 0
1 -6 -19 0
1 -41 -6 0
1 -40 -6 0
1 -6 -37 0
1 -7 -12 0
1 -7 -16 0
1 -7 -17 0
1 -42 -6 0
1 -44 -6 0
1 -7 -11 0
1 -7 -19 0
1 -7 -18 0
1 -7 -22 0
1 -7 -21 0
1 -4 -33 0
1 -4 -37 0
1 -4 -29 0
1 -31 -4 0
1 -5 -11 0
1 -4 -42 0
1 -4 -47 0
1 -5 -12 0
1 -5 -19 0
1 -5 -20 0
1 -5 -21 0
1 -5 -22 0
1 -33 -5 0
1 -5 -36 0
1 -5 -37 0
1 -41 -5 0
1 -42 -5 0
1 -44 -5 0
1 -47 -5 0
1 -11 -6 0
1 -27 -8 0
1 -26 -8 0
1 -25 -8 0
1 -8 -22 0
1 -27 -4 0
1 -26 -4 0
1 -25 -4 0
1 -4 -11 0
1 -4 -10 0
1 -3 -47 0
1 -4 -22 0
1 -4 -21 0
1 -4 -20 0
1 -4 -12 0
1 -47 -8 0
1 -40 -3 0
1 -39 -3 0
1 -3 -46 0
1 -41 -3 0
1 -30 -3 0
1 -27 -3 0
1 -3 -33 0
1 -31 -3 0
1 -3 -35 0
1 -3 -34 0
1 -7 -27 0
1 -31 -8 0
1 -7 -26 0
1 -33 -8 0
1 -7 -25 0
1 -7 -24 0
1 -7 -31 0
1 -7 -30 0
1 -8 -45 0
1 -44 -8 0
1 -7 -33 0
1 -42 -8 0
1 -41 -8 0
1 -40 -8 0
1 -7 -40 0
1 -8 -37 0
1 -7 -41 0
1 -8 -36 0
1 -7 -35 0
1 -7 -37 0
1 -8 -35 0
1 -3 -20 0
1 -7 -44 0
1 -3 -18 0
1 -7 -42 0
1 -3 -17 0
1 -7 -46 0
1 -3 -16 0
1 -7 -45 0
1 -26 -3 0
1 -25 -3 0
1 -24 -3 0
1 -8 -11 0
1 -8 -12 0
1 -8 -18 0
1 -3 -10 0
1 -8 -19 0
1 -8 -20 0
1 -8 -21 0
245 1 0
